
List of user-set options:

                                    Name   Value                used
                acceptable_compl_inf_tol = 1e+10                 yes
              acceptable_constr_viol_tol = 1e-06                 yes
                 acceptable_dual_inf_tol = 1e+10                 yes
                         acceptable_iter = 5                     yes
                          acceptable_tol = 1                     yes
                             alpha_for_y = safer-min-dual-infeas  yes
                  bound_mult_init_method = mu-based              yes
                        file_print_level = 5                     yes
                   hessian_approximation = limited-memory        yes
                           linear_solver = mumps                 yes
                      nlp_scaling_method = gradient-based        yes
                             output_file = C:\Users\steph\Documents\GitHub\gtoc13\gtoc13\path_finding\binlp\__main___out/IPOPT.out  yes
                             print_level = 5                     yes
                      print_user_options = yes                   yes
                                      sb = yes                   yes
                                     tol = 1e-06                 yes
This is Ipopt version 3.14.17, running with linear solver MUMPS 5.7.3.

Number of nonzeros in equality constraint Jacobian...:    94239
Number of nonzeros in inequality constraint Jacobian.:      565
Number of nonzeros in Lagrangian Hessian.............:        0

Total number of variables............................:      747
                     variables with only lower bounds:        1
                variables with lower and upper bounds:      183
                     variables with only upper bounds:        0
Total number of equality constraints.................:      743
Total number of inequality constraints...............:        4
        inequality constraints with only lower bounds:        0
   inequality constraints with lower and upper bounds:        0
        inequality constraints with only upper bounds:        4

iter    objective    inf_pr   inf_du lg(mu)  ||d||  lg(rg) alpha_du alpha_pr  ls
   0 -1.9505826e+01 3.91e+03 1.00e+01   0.0 0.00e+00    -  0.00e+00 0.00e+00   0
   1 -1.8035767e+01 7.63e+03 4.33e+03   0.8 9.89e+01    -  9.90e-01 1.00e+00f  1
   2 -1.7476546e+01 5.99e+03 8.79e+02  -0.1 2.07e+01    -  1.00e+00 1.46e-01h  1
   3 -1.7049917e+01 1.82e+03 1.98e+03   0.4 2.49e+03    -  1.00e+00 1.50e-02h  1
   4 -1.3335149e+01 1.48e+03 1.14e+04   0.5 4.84e+01    -  1.00e+00 1.70e-01h  1
   5 -1.3238497e+01 1.23e+03 1.09e+04   1.8 4.68e+01    -  8.23e-01 1.72e-01h  1
   6 -1.0615558e+01 3.37e+01 4.60e+03   1.7 3.88e+01    -  1.00e+00 9.90e-01f  1
   7 -1.1184690e+01 1.44e+01 9.50e+02  -4.3 6.58e+00    -  6.25e-01 6.06e-01h  1
   8 -1.1273957e+01 5.75e+01 9.01e+02   1.2 3.84e+00    -  5.58e-01 9.97e-01f  1
   9 -1.0674261e+01 5.18e+00 2.67e+02   0.3 3.62e+00    -  1.00e+00 1.00e+00h  1
iter    objective    inf_pr   inf_du lg(mu)  ||d||  lg(rg) alpha_du alpha_pr  ls
  10 -1.0665230e+01 2.59e+00 2.35e+01   0.6 2.61e+00    -  7.32e-01 1.00e+00h  1
  11 -1.0668353e+01 3.70e-02 3.21e+00  -1.6 4.41e-01    -  9.94e-01 1.00e+00h  1
  12 -1.0680989e+01 2.29e-03 4.60e+00  -3.2 2.88e-02    -  1.00e+00 1.00e+00h  1
  13 -1.2953673e+01 7.53e+02 6.40e+00  -2.9 1.43e+01    -  1.00e+00 3.27e-01f  1
  14 -1.2183698e+01 5.41e+01 5.22e+00  -2.7 2.11e+00    -  1.00e+00 1.00e+00h  1
  15 -1.2540986e+01 3.97e+00 3.84e+00  -2.3 8.73e-01    -  1.00e+00 1.00e+00h  1
  16 -1.3529586e+01 1.26e+01 2.27e+00  -3.1 1.61e+00    -  1.00e+00 1.00e+00h  1
  17 -1.3861613e+01 1.22e+01 2.13e+00  -9.1 3.22e+01    -  2.35e-02 2.77e-02h  1
  18 -1.4367843e+01 1.30e+01 1.40e+00  -2.5 2.26e+00    -  1.00e+00 6.39e-01h  1
  19 -1.4433988e+01 6.37e+00 6.96e-02  -2.2 6.26e-01    -  1.00e+00 5.14e-01h  1
iter    objective    inf_pr   inf_du lg(mu)  ||d||  lg(rg) alpha_du alpha_pr  ls
  20 -1.4515290e+01 3.82e-01 4.78e-02  -2.9 5.02e-01    -  1.00e+00 1.00e+00h  1
  21 -1.4519745e+01 5.70e-03 2.23e-03  -4.2 8.90e-02    -  1.00e+00 1.00e+00h  1
  22 -1.4519797e+01 9.04e-08 9.18e-04  -6.3 9.19e-04    -  9.99e-01 1.00e+00h  1
  23 -1.4519799e+01 3.94e-09 6.00e-09  -8.3 5.41e-05    -  1.00e+00 9.83e-01h  1

Number of Iterations....: 23

                                   (scaled)                 (unscaled)
Objective...............:  -1.4519799039043475e+01   -1.4519799039043475e+01
Dual infeasibility......:   6.0039714311344028e-09    6.0039714311344028e-09
Constraint violation....:   3.9422527464694213e-09    3.9422527464694213e-09
Variable bound violation:   0.0000000000000000e+00    0.0000000000000000e+00
Complementarity.........:   9.4573397602930599e-09    9.4573397602930599e-09
Overall NLP error.......:   9.4573397602930599e-09    9.4573397602930599e-09


Number of objective function evaluations             = 24
Number of objective gradient evaluations             = 24
Number of equality constraint evaluations            = 24
Number of inequality constraint evaluations          = 24
Number of equality constraint Jacobian evaluations   = 24
Number of inequality constraint Jacobian evaluations = 24
Number of Lagrangian Hessian evaluations             = 0
Total seconds in IPOPT                               = 3.981

EXIT: Optimal Solution Found.
